(declare-const a Real)
(declare-const b Real)
(declare-const c Real)
(assert (= (+ (pow a 3) (pow b 3) (pow c 3) (* a b c)) 4))
(assert (> a 0))
(assert (> b 0))
(assert (> c 0))
(assert (not (<= (+ (* (pow (+ a b c) -1) (pow (+ (* (/ 5 2) (pow a 3)) (* (/ 5 2) (pow b 3)) (* (/ 5 2) (pow c 3)) (* (/ 3 2) a b c)) 2)) (* -1 (pow (+ (* (pow (+ (* (/ 1 4) (pow a 3)) (* (/ 1 4) (pow b 3)) (* (/ 1 4) (pow c 3)) (* (/ 1 4) a b c)) -1) (+ a b) (+ a c)) (* (pow (+ (* (/ 1 4) (pow a 3)) (* (/ 1 4) (pow b 3)) (* (/ 1 4) (pow c 3)) (* (/ 1 4) a b c)) -1) (+ a b) (+ b c)) (* (pow (+ (* (/ 1 4) (pow a 3)) (* (/ 1 4) (pow b 3)) (* (/ 1 4) (pow c 3)) (* (/ 1 4) a b c)) -1) (+ a c) (+ b c))) -1) (pow (+ (* 5 (pow a 2)) (* 5 (pow b 2)) (* 5 (pow c 2)) (* a b) (* a c) (* b c)) 2))) 0)))
(check-sat)
(get-model)
(exit)